sat
(:max-memory          18.80
 :memory              17.83
 :num-allocs          439834
 :rlimit-count        103219
 :sls-arith-moves     1292
 :sls-ddfw-flips      217.00
 :sls-ddfw-shifts     26.00
 :solve-eqs-elim-vars 44
 :solve-eqs-steps     812
 :time                0.20
 :total-time          0.19)
